(set-info :smt-lib-version 2.6)
(set-logic QF_S)
(set-info :source |
Generated by: Hung-En Wang, Tzung-Lin Tsai, Chun-Han Lin, Fang Yu, and Jie-Hong R. Jiang
Generated on: 2019-02-28
Generator: Stranger
Application: Security analysis of string manipulating web applications
Target solver: CVC4, Norn, Z3-str2
Publication:
Hung-En Wang, Tzung-Lin Tsai, Chun-Han Lin, Fang Yu, Jie-Hong R. Jiang:
String Analysis via Automata Manipulation with Logic Circuit Representation. CAV (1) 2016: 241-260.
|)
(set-info :license "https://creativecommons.org/licenses/by/4.0/")
(set-info :category "industrial")
(set-info :status unknown)

(declare-fun sigmaStar_0 () String)
(declare-fun sigmaStar_1 () String)
(declare-fun sigmaStar_2 () String)
(declare-fun sigmaStar_3 () String)
(declare-fun sigmaStar_4 () String)
(declare-fun sigmaStar_5 () String)
(declare-fun sigmaStar_6 () String)
(declare-fun sigmaStar_7 () String)
(declare-fun literal_8 () String)
(declare-fun x_9 () String)
(declare-fun sigmaStar_10 () String)
(declare-fun literal_11 () String)
(declare-fun x_12 () String)
(declare-fun x_13 () String)
(declare-fun x_14 () String)
(declare-fun literal_15 () String)
(declare-fun x_16 () String)
(declare-fun sigmaStar_17 () String)
(declare-fun x_18 () String)
(declare-fun x_19 () String)
(declare-fun literal_20 () String)
(declare-fun x_21 () String)
(declare-fun x_22 () String)
(declare-fun x_24 () String)
(declare-fun literal_23 () String)
(declare-fun x_26 () String)
(declare-fun literal_25 () String)
(declare-fun x_27 () String)
(declare-fun literal_28 () String)
(declare-fun x_29 () String)
(declare-fun x_30 () String)
(declare-fun x_31 () String)
(declare-fun x_32 () String)
(declare-fun literal_33 () String)
(declare-fun x_34 () String)
(declare-fun x_35 () String)
(declare-fun literal_36 () String)
(declare-fun x_37 () String)
(assert (= literal_8 "\u{3c}\u{61}\u{20}\u{68}\u{72}\u{65}\u{66}\u{3d}\u{27}\u{76}\u{69}\u{65}\u{77}\u{74}\u{68}\u{72}\u{65}\u{61}\u{64}\u{2e}\u{70}\u{68}\u{70}\u{3f}\u{66}\u{6f}\u{72}\u{75}\u{6d}\u{5f}\u{69}\u{64}\u{3d}"))
(assert (= x_9 (str.++ literal_8 sigmaStar_1)))
(assert (= literal_11 "\u{26}\u{61}\u{6d}\u{70}\u{3b}\u{74}\u{68}\u{72}\u{65}\u{61}\u{64}\u{5f}\u{69}\u{64}\u{3d}"))
(assert (= x_12 (str.++ x_9 literal_11)))
(assert (or (= x_13 sigmaStar_10) (= x_13 sigmaStar_6)))
(assert (= x_14 (str.++ x_12 x_13)))
(assert (= literal_15 "\u{26}\u{61}\u{6d}\u{70}\u{3b}\u{70}\u{69}\u{64}\u{3d}"))
(assert (= x_16 (str.++ x_14 literal_15)))
(assert (or (= x_18 sigmaStar_17) (= x_18 sigmaStar_0)))
(assert (= x_19 (str.++ x_16 x_18)))
(assert (= literal_20 "\u{23}\u{70}\u{6f}\u{73}\u{74}\u{5f}"))
(assert (= x_21 (str.++ x_19 literal_20)))
(assert (or (= x_22 sigmaStar_17) (= x_22 sigmaStar_2)))
(assert (= x_24 (str.++ x_21 x_22)))
(assert (= literal_23 "\u{3c}\u{2f}\u{61}\u{3e}\u{20}\u{7c}\u{0d}\u{0a}\u{3c}\u{61}\u{20}\u{68}\u{72}\u{65}\u{66}\u{3d}\u{27}\u{76}\u{69}\u{65}\u{77}\u{66}\u{6f}\u{72}\u{75}\u{6d}\u{2e}\u{70}\u{68}\u{70}\u{3f}\u{66}\u{6f}\u{72}\u{75}\u{6d}\u{5f}\u{69}\u{64}\u{3d}"))
(assert (= x_26 (str.++ literal_23 sigmaStar_5)))
(assert (= literal_25 "\u{27}\u{3e}"))
(assert (= x_27 (str.++ x_24 literal_25)))
(assert (= literal_28 "\u{27}\u{3e}"))
(assert (= x_29 (str.++ x_26 literal_28)))
(assert (= x_30 (str.++ x_27 sigmaStar_3)))
(assert (= x_31 (str.++ x_30 x_29)))
(assert (= x_32 (str.++ x_31 sigmaStar_7)))
(assert (= literal_33 "\u{3c}\u{2f}\u{61}\u{3e}\u{20}\u{7c}\u{0d}\u{0a}\u{3c}\u{61}\u{20}\u{68}\u{72}\u{65}\u{66}\u{3d}\u{27}\u{69}\u{6e}\u{64}\u{65}\u{78}\u{2e}\u{70}\u{68}\u{70}\u{27}\u{3e}"))
(assert (= x_34 (str.++ x_32 literal_33)))
(assert (= x_35 (str.++ x_34 sigmaStar_4)))
(assert (= literal_36 "\u{3c}\u{2f}\u{61}\u{3e}\u{3c}\u{62}\u{72}\u{3e}\u{3c}\u{62}\u{72}\u{3e}\u{0d}\u{0a}\u{3c}\u{2f}\u{63}\u{65}\u{6e}\u{74}\u{65}\u{72}\u{3e}\u{5c}\u{6e}"))
(assert (= x_37 (str.++ x_35 literal_36)))
(assert (str.in_re x_37 (re.++ (re.* re.allchar) (re.++ (str.to_re "\u{5c}\u{3c}\u{53}\u{43}\u{52}\u{49}\u{50}\u{54}") (re.* re.allchar)))))
(check-sat)
(exit)
